letting n =  10
letting blocks =  [[1, 2], [1, 3], [1, 7], [1, 10], [2, 1], [2, 4], [2, 7], [3, 1], [3, 3], [3, 4], [3, 5], [4, 2], [5, 2], [6, 2], [6, 8], [6, 9], [7, 9], [8, 4], [8, 10], [9, 1], [9, 2], [9, 3], [9, 6], [9, 7], [10, 1], [10, 3], [10, 5], [10, 6]]
